c read Graph
c width = 7
c time = 48 ms
c width = 3
c time = 65 ms
c width = 3
c time = 4861 ms
s td 24 4 27
b 1 1 2 10
b 2 2 3 10 11
b 3 7 8 17 18
b 4 3 10 11 20
b 5 3 11 12 20
b 6 7 17 18 26
b 7 3 12 20 21
b 8 3 12 21 22
b 9 7 17 25 26
b 10 3 4 12 22
b 11 4 12 13 22
b 12 4 13 14 22
b 13 7 16 17 25
b 14 4 14 22 23
b 15 4 14 23 24
b 16 7 16 24 25
b 17 4 5 14 24
b 18 5 14 15 24
b 19 5 6 15 24
b 20 6 7 15 24
b 21 7 15 16 24
b 22 18 26 27
b 23 10 19 20
b 24 8 9 18
1 2
2 4
3 24
3 6
4 23
4 5
5 7
6 22
6 9
7 8
8 10
9 13
10 11
11 12
12 14
13 16
14 15
15 17
16 21
17 18
18 19
19 20
20 21
